p cnf 33 89
a 28 0
e 1 2 3 4 5 6 7 8 9 10 11 12 13 14 15 16 17 18 19 20 21 22 23 24 25 26 27 29 30 31 32 33 0
-3 -1 0
-3 2 0
1 -2 3 0
3 -4 -5 0
-3 4 -5 0
3 4 5 0
-3 -4 5 0
-8 6 0
-8 -7 0
-6 7 8 0
9 5 0
9 8 0
-5 -8 -9 0
-10 1 0
-10 -1 0
-10 4 -11 0
10 -4 -11 0
-10 -4 11 0
10 4 11 0
-13 12 0
-13 -6 0
-12 6 13 0
-14 11 0
-14 -13 0
-11 13 14 0
-15 -9 0
-15 -14 0
9 14 15 0
-16 7 0
-16 -1 0
-7 1 16 0
18 1 0
18 17 0
-1 -17 -18 0
19 -16 0
19 -18 0
16 18 -19 0
2 -3 -20 0
-2 3 -20 0
2 3 20 0
-2 -3 20 0
21 -19 0
21 -20 0
19 20 -21 0
-15 -21 -22 0
15 21 -22 0
-15 21 22 0
15 -21 22 0
24 17 0
24 23 0
-17 -23 -24 0
-25 -4 0
-25 6 0
4 -6 25 0
26 -24 0
26 25 0
24 -25 -26 0
-27 2 0
-27 -7 0
-2 7 27 0
6 -23 -28 0
-6 23 -28 0
6 23 28 0
-6 -23 28 0
-27 28 -29 0
27 -28 -29 0
-27 -28 29 0
27 28 29 0
30 -26 0
30 -29 0
26 29 -30 0
-31 -3 0
-31 24 0
3 -24 31 0
32 -30 0
32 31 0
30 -31 -32 0
33 22 0
33 -32 0
-22 32 -33 0
20 -9 4 -18 0
-30 -32 8 6 19 -20 0
-30 18 28 -9 -10 1 0
11 17 -31 -29 5 3 27 0
3 28 11 0
26 -28 -11 25 0
28 -10 22 9 -33 12 0
27 -3 13 -22 0
33 0
